NAME : d198.tsp.opt.tour
COMMENT : 
TYPE : TOUR
DIMENSION : 198
TOUR SECTION
140
138
124
169
125
126
127
170
128
129
137
144
145
150
151
163
164
165
166
172
171
190
189
188
191
192
193
186
187
196
197
198
195
194
179
185
184
180
178
175
174
173
176
177
181
183
182
168
167
108
109
110
111
107
106
112
113
114
105
92
91
80
79
63
49
48
50
64
78
77
76
81
65
75
62
53
46
52
51
47
39
35
34
33
36
37
32
31
29
30
28
23
22
27
26
25
24
21
20
19
18
17
16
15
14
40
1
2
7
6
3
4
5
8
9
10
11
12
13
41
42
43
57
58
69
71
85
86
100
99
87
84
73
72
68
67
70
60
59
56
55
44
38
45
54
61
66
74
83
82
88
98
97
89
90
96
95
94
93
101
102
103
104
115
122
121
116
117
118
119
120
123
139
154
155
156
157
158
159
160
161
162
152
153
148
149
146
147
142
143
141
135
136
133
130
131
132
134
140
